s td 41 20 60
b 1 18 19
b 2 5 14 31
b 3 6 27 36
b 4 10 15 46 52
b 5 22 32 60
b 6 27 36 52
b 7 1 22 28 37 38 50
b 8 4 7 8 9 10 22 24 25 26 28 35 37 38 41 42 44 50 52 54 56
b 9 22 25 26 28 31 52 54
b 10 2 28 31 54
b 11 14 26 31 54
b 12 4 7 8 9 10 16 22 24 25 26 35 37 38 41 42 44 50 52 54 56
b 13 3 4 7 8 9 10 16 22 24 25 26 35 37 38 41 42 44 50 52 54
b 14 3 7 9 10 16 24 25 26 33 44 52 54
b 15 3 7 9 16 24 25 26 33 49 52
b 16 3 16 24 29 33 49
b 17 3 7 9 26 30 33 49 52
b 18 3 9 26 30 33 45 52
b 19 3 4 7 8 9 10 16 22 35 37 38 41 42 44 48 52 54
b 20 3 4 7 9 10 16 22 37 38 41 42 44 48 52 54 60
b 21 3 4 7 9 10 16 37 41 42 44 48 52 54 55 60
b 22 3 4 10 16 42 46 48 52 54 55
b 23 7 37 54 55 58
b 24 8 13 16 24 37 50 56
b 25 12 13 16 37 56
b 26 4 7 8 9 10 22 24 25 26 28 35 38 41 42 44 50 51 52 54 56
b 27 4 7 8 9 10 22 24 25 26 27 28 38 41 42 44 50 51 52 54 56
b 28 4 7 8 9 10 22 23 24 25 26 27 28 38 41 42 50 51 54 56
b 29 7 8 9 10 22 23 24 25 26 27 28 38 41 42 43 50 51 54 56
b 30 7 8 9 10 22 23 24 25 26 27 28 41 42 43 50 51 53 54 56
b 31 9 17 22 23 24 25 26 27 28 41 42 43 50 51 53 54 56
b 32 9 17 23 25 26 27 28 39 41 42 43 50 51 53 54 56
b 33 9 17 23 26 27 28 39 40 41 42 43 50 53 54 56
b 34 9 17 19 23 26 27 28 40 41 43 50 53 54 56
b 35 11 19 23 27 40 43 53 54 56
b 36 9 19 28 41 43 47 53
b 37 17 21 23 51 54
b 38 7 20 23 24 28 38 43
b 39 22 34 35 51 54
b 40 4 25 28 37 41 50 56 57
b 41 4 28 37 50 57 59
1 34
2 11
3 6
4 22
5 20
6 27
7 8
8 9
8 12
8 26
8 40
9 10
9 11
12 13
12 24
13 14
13 19
14 15
15 16
15 17
17 18
19 20
20 21
21 22
21 23
24 25
26 27
26 39
27 28
28 29
29 30
29 38
30 31
31 32
31 37
32 33
33 34
34 35
34 36
40 41
